cost: 1392.54
Route 1:           0   13  117   97   87   42  142   43   15   57  144  137   58    0
Route 2:           0   27  132   69  101   70  122   30  108   10   31    0
Route 3:           0   28  138   12  109  150   80   68  121   29   24  134   54  130   55   25   67   23   41  145  115    2    0
Route 4:           0   50  102   33   81  120    9  103   20  128  131   32   90  126   63   64   49  143   36   47  124   46    8  114    0
Route 5:           0   53  105   26  149  110    4  139   39   56   75  133   22   74   72   73   21   40    0
Route 6:           0   94   95   92   37   98  100   91   16  141   44  119   14   38  140   86  113   17   45  125   83   18    0
Route 7:           0  111   76  116   77    3   79  129   78   34  135   35  136   65   71   66   51    1    0
Route 8:           0  112  147    6   96  104   99   59   93   85   61   84    5  118   60   89    0
Route 9:           0  146  127   88  148   62   11  107   19  123   48   82    7  106   52    0
